language ESSENCE' 1.0
$ minion Nodes: 5
$ minion TotalTime: 0.000516
$ Savile Row TotalTime: 0.199
letting s_AsReln_RelationIntMatrix2 be [[false, true;int(-1,1)], 
[false, true;int(-1,1)], 
[false, true;int(-1,1)];int(1..3)]
